33 33
23
3 3 24 15
3 4 20 3
3 5 13 28
3 6 7 10
3 7 30 3
3 8 20 7
3 9 30 10
3 10 7 0
13 3 20 0
3 14 30 19
3 15 24 18
3 17 7 16
3 24 13 4
3 30 27 3
3 33 10 0
3 4 13 0
4 4 20 29
4 6 16 27
4 10 16 0
4 12 23 3
4 14 20 15
4 17 16 10
7 33 0 0
